Maximize
 0
Subject To
 epc_0!1: -23.342064931513406 y_1!1_2!1 -94.64348887429747 y_1!2_2!1 +87.98563634397186 y_1!3_2!1 -49.09844891522979 y_1!4_2!1 +23.46273912292591 y_1!5_2!1 -10.87425481469215 y_1!1_2!2 -44.5251398091892 y_1!2_2!2 -26.726220074842317 y_1!3_2!2 -0.4143918354662617 y_1!4_2!2 +10.099187666035505 y_1!5_2!2 +75.44006288887039 y_1!1_2!3 +37.83061483423455 y_1!2_2!3 -9.063905128459254 y_1!3_2!3 +92.25668019069221 y_1!4_2!3 -45.15029532699955 y_1!5_2!3 -8.331572309779304 y_1!1_2!4 -53.128476341405985 y_1!2_2!4 +49.118149089110375 y_1!3_2!4 -81.18476874646943 y_1!4_2!4 +76.33501850534051 y_1!5_2!4 -41.80348768160131 y_1!1_2!5 -69.77998260098545 y_1!2_2!5 +91.42996950639608 y_1!3_2!5 -67.96035001985825 y_1!4_2!5 +48.90245440734981 y_1!5_2!5 + lambda_0!1 - mu_0 = 0
 epc_0!2: +34.967251022260626 y_1!1_2!1 +88.86051368111191 y_1!2_2!1 +71.080946603835 y_1!3_2!1 -0.924867257690039 y_1!4_2!1 -83.74217526361838 y_1!5_2!1 -87.61603360314534 y_1!1_2!2 +97.15941360714095 y_1!2_2!2 -64.79240574968293 y_1!3_2!2 +69.78234050551657 y_1!4_2!2 +10.634067401160678 y_1!5_2!2 +13.931167828358411 y_1!1_2!3 +93.3455096297821 y_1!2_2!3 +91.14106582585356 y_1!3_2!3 -15.033185875140177 y_1!4_2!3 -61.75725222275324 y_1!5_2!3 +20.815886746247102 y_1!1_2!4 -8.571493308897331 y_1!2_2!4 -18.441629100480085 y_1!3_2!4 -13.88492115571755 y_1!4_2!4 +13.661698183804674 y_1!5_2!4 +14.896479504366212 y_1!1_2!5 +13.030530606150933 y_1!2_2!5 +17.601248770765167 y_1!3_2!5 -76.61027655252329 y_1!4_2!5 -48.54698694487978 y_1!5_2!5 + lambda_0!2 - mu_0 = 0
 epc_0!3: -54.6747424739418 y_1!1_2!1 -14.531915915496825 y_1!2_2!1 +99.63089254334784 y_1!3_2!1 -18.173063214985817 y_1!4_2!1 -93.19843002527645 y_1!5_2!1 -29.98853891368549 y_1!1_2!2 -41.396462096331675 y_1!2_2!2 -73.62744387582526 y_1!3_2!2 -44.59952012436983 y_1!4_2!2 -17.147405403156085 y_1!5_2!2 +26.605907817699517 y_1!1_2!3 -8.740939119530466 y_1!2_2!3 -14.784272208262394 y_1!3_2!3 +86.31842418755153 y_1!4_2!3 +51.60056716143447 y_1!5_2!3 +67.58715536347063 y_1!1_2!4 +99.63691676536456 y_1!2_2!4 -43.30413994185089 y_1!3_2!4 +76.75838805478011 y_1!4_2!4 +2.7209639882377843 y_1!5_2!4 +17.09035899131692 y_1!1_2!5 +79.13056231539304 y_1!2_2!5 +26.344385236652727 y_1!3_2!5 -25.474672007127296 y_1!4_2!5 -24.18043350838552 y_1!5_2!5 + lambda_0!3 - mu_0 = 0
 epc_0!4: +58.53823915543143 y_1!1_2!1 +39.79190248782402 y_1!2_2!1 -54.14467757380559 y_1!3_2!1 -0.04056290134037965 y_1!4_2!1 +89.11570092760189 y_1!5_2!1 -45.994764897031935 y_1!1_2!2 -92.53545421039505 y_1!2_2!2 +35.55595526571949 y_1!3_2!2 -82.80522614988352 y_1!4_2!2 -32.831992529528904 y_1!5_2!2 -75.16223764668048 y_1!1_2!3 -46.06409099484523 y_1!2_2!3 +96.5917807026897 y_1!3_2!3 -4.003407156530429 y_1!4_2!3 -25.860943936225993 y_1!5_2!3 -19.143712748773467 y_1!1_2!4 -54.33026601977722 y_1!2_2!4 +63.23545630644304 y_1!3_2!4 -69.52306300368775 y_1!4_2!4 -97.53967127846039 y_1!5_2!4 +76.47609848574464 y_1!1_2!5 +84.42778600365301 y_1!2_2!5 -57.52739564933147 y_1!3_2!5 -29.68884081316243 y_1!4_2!5 +90.36864579555822 y_1!5_2!5 + lambda_0!4 - mu_0 = 0
 epc_0!5: -32.87981444767874 y_1!1_2!1 -81.8042600238055 y_1!2_2!1 +60.5816139921275 y_1!3_2!1 +85.89643920000941 y_1!4_2!1 +27.916224465839747 y_1!5_2!1 -39.64479275102111 y_1!1_2!2 +76.28319159493498 y_1!2_2!2 +3.3201657458180165 y_1!3_2!2 -53.02247264797357 y_1!4_2!2 -39.87161371510772 y_1!5_2!2 +49.83599171536065 y_1!1_2!3 -54.125298958881075 y_1!2_2!3 -78.51176214978489 y_1!3_2!3 -10.694930508682802 y_1!4_2!3 +2.9364154436063927 y_1!5_2!3 -2.30555207112333 y_1!1_2!4 +12.138113276456949 y_1!2_2!4 -32.35087812789385 y_1!3_2!4 -32.99218766873446 y_1!4_2!4 +94.50537014610737 y_1!5_2!4 -71.10801156249286 y_1!1_2!5 -26.930115030745228 y_1!2_2!5 -94.16052136979135 y_1!3_2!5 +90.52599457227319 y_1!4_2!5 +32.98338225445664 y_1!5_2!5 + lambda_0!5 - mu_0 = 0
 dc_0: x_0!1 + x_0!2 + x_0!3 + x_0!4 + x_0!5 = 1
 bc_0!1: lambda_0!1 +297.17658804382495 x_0!1 <= 297.17658804382495
 bc_0!2: lambda_0!2 +297.17658804382495 x_0!2 <= 297.17658804382495
 bc_0!3: lambda_0!3 +297.17658804382495 x_0!3 <= 297.17658804382495
 bc_0!4: lambda_0!4 +297.17658804382495 x_0!4 <= 297.17658804382495
 bc_0!5: lambda_0!5 +297.17658804382495 x_0!5 <= 297.17658804382495
 sum_0!1: y_1!1_2!1 - x_1!1 - x_2!1 >= -1
 idk_0!1!1: y_1!1_2!1 - x_1!1 <= 0
 idk_0!1!2: y_1!1_2!1 - x_2!1 <= 0
 sum_0!2: y_1!2_2!1 - x_1!2 - x_2!1 >= -1
 idk_0!2!1: y_1!2_2!1 - x_1!2 <= 0
 idk_0!2!2: y_1!2_2!1 - x_2!1 <= 0
 sum_0!3: y_1!3_2!1 - x_1!3 - x_2!1 >= -1
 idk_0!3!1: y_1!3_2!1 - x_1!3 <= 0
 idk_0!3!2: y_1!3_2!1 - x_2!1 <= 0
 sum_0!4: y_1!4_2!1 - x_1!4 - x_2!1 >= -1
 idk_0!4!1: y_1!4_2!1 - x_1!4 <= 0
 idk_0!4!2: y_1!4_2!1 - x_2!1 <= 0
 sum_0!5: y_1!5_2!1 - x_1!5 - x_2!1 >= -1
 idk_0!5!1: y_1!5_2!1 - x_1!5 <= 0
 idk_0!5!2: y_1!5_2!1 - x_2!1 <= 0
 sum_0!6: y_1!1_2!2 - x_1!1 - x_2!2 >= -1
 idk_0!6!1: y_1!1_2!2 - x_1!1 <= 0
 idk_0!6!2: y_1!1_2!2 - x_2!2 <= 0
 sum_0!7: y_1!2_2!2 - x_1!2 - x_2!2 >= -1
 idk_0!7!1: y_1!2_2!2 - x_1!2 <= 0
 idk_0!7!2: y_1!2_2!2 - x_2!2 <= 0
 sum_0!8: y_1!3_2!2 - x_1!3 - x_2!2 >= -1
 idk_0!8!1: y_1!3_2!2 - x_1!3 <= 0
 idk_0!8!2: y_1!3_2!2 - x_2!2 <= 0
 sum_0!9: y_1!4_2!2 - x_1!4 - x_2!2 >= -1
 idk_0!9!1: y_1!4_2!2 - x_1!4 <= 0
 idk_0!9!2: y_1!4_2!2 - x_2!2 <= 0
 sum_0!10: y_1!5_2!2 - x_1!5 - x_2!2 >= -1
 idk_0!10!1: y_1!5_2!2 - x_1!5 <= 0
 idk_0!10!2: y_1!5_2!2 - x_2!2 <= 0
 sum_0!11: y_1!1_2!3 - x_1!1 - x_2!3 >= -1
 idk_0!11!1: y_1!1_2!3 - x_1!1 <= 0
 idk_0!11!2: y_1!1_2!3 - x_2!3 <= 0
 sum_0!12: y_1!2_2!3 - x_1!2 - x_2!3 >= -1
 idk_0!12!1: y_1!2_2!3 - x_1!2 <= 0
 idk_0!12!2: y_1!2_2!3 - x_2!3 <= 0
 sum_0!13: y_1!3_2!3 - x_1!3 - x_2!3 >= -1
 idk_0!13!1: y_1!3_2!3 - x_1!3 <= 0
 idk_0!13!2: y_1!3_2!3 - x_2!3 <= 0
 sum_0!14: y_1!4_2!3 - x_1!4 - x_2!3 >= -1
 idk_0!14!1: y_1!4_2!3 - x_1!4 <= 0
 idk_0!14!2: y_1!4_2!3 - x_2!3 <= 0
 sum_0!15: y_1!5_2!3 - x_1!5 - x_2!3 >= -1
 idk_0!15!1: y_1!5_2!3 - x_1!5 <= 0
 idk_0!15!2: y_1!5_2!3 - x_2!3 <= 0
 sum_0!16: y_1!1_2!4 - x_1!1 - x_2!4 >= -1
 idk_0!16!1: y_1!1_2!4 - x_1!1 <= 0
 idk_0!16!2: y_1!1_2!4 - x_2!4 <= 0
 sum_0!17: y_1!2_2!4 - x_1!2 - x_2!4 >= -1
 idk_0!17!1: y_1!2_2!4 - x_1!2 <= 0
 idk_0!17!2: y_1!2_2!4 - x_2!4 <= 0
 sum_0!18: y_1!3_2!4 - x_1!3 - x_2!4 >= -1
 idk_0!18!1: y_1!3_2!4 - x_1!3 <= 0
 idk_0!18!2: y_1!3_2!4 - x_2!4 <= 0
 sum_0!19: y_1!4_2!4 - x_1!4 - x_2!4 >= -1
 idk_0!19!1: y_1!4_2!4 - x_1!4 <= 0
 idk_0!19!2: y_1!4_2!4 - x_2!4 <= 0
 sum_0!20: y_1!5_2!4 - x_1!5 - x_2!4 >= -1
 idk_0!20!1: y_1!5_2!4 - x_1!5 <= 0
 idk_0!20!2: y_1!5_2!4 - x_2!4 <= 0
 sum_0!21: y_1!1_2!5 - x_1!1 - x_2!5 >= -1
 idk_0!21!1: y_1!1_2!5 - x_1!1 <= 0
 idk_0!21!2: y_1!1_2!5 - x_2!5 <= 0
 sum_0!22: y_1!2_2!5 - x_1!2 - x_2!5 >= -1
 idk_0!22!1: y_1!2_2!5 - x_1!2 <= 0
 idk_0!22!2: y_1!2_2!5 - x_2!5 <= 0
 sum_0!23: y_1!3_2!5 - x_1!3 - x_2!5 >= -1
 idk_0!23!1: y_1!3_2!5 - x_1!3 <= 0
 idk_0!23!2: y_1!3_2!5 - x_2!5 <= 0
 sum_0!24: y_1!4_2!5 - x_1!4 - x_2!5 >= -1
 idk_0!24!1: y_1!4_2!5 - x_1!4 <= 0
 idk_0!24!2: y_1!4_2!5 - x_2!5 <= 0
 sum_0!25: y_1!5_2!5 - x_1!5 - x_2!5 >= -1
 idk_0!25!1: y_1!5_2!5 - x_1!5 <= 0
 idk_0!25!2: y_1!5_2!5 - x_2!5 <= 0
 epc_1!1: -50.69040537006699 y_0!1_2!1 +90.96030067289877 y_0!2_2!1 +25.428323285008304 y_0!3_2!1 +6.308375619001623 y_0!4_2!1 -54.844400719796084 y_0!5_2!1 +33.82749647266189 y_0!1_2!2 -59.76160937544237 y_0!2_2!2 -77.9871235697702 y_0!3_2!2 +75.55549233994674 y_0!4_2!2 -51.64527181845595 y_0!5_2!2 +50.563930243855026 y_0!1_2!3 -45.33796677678772 y_0!2_2!3 -81.92278870629535 y_0!3_2!3 -14.495752750660458 y_0!4_2!3 -71.53561154339612 y_0!5_2!3 +74.44972422589407 y_0!1_2!4 -84.79308188789345 y_0!2_2!4 +77.40704457823992 y_0!3_2!4 -58.82959506072714 y_0!4_2!4 -15.539092145162542 y_0!5_2!4 -92.47133636200562 y_0!1_2!5 +38.038512715140456 y_0!2_2!5 +92.36824962284501 y_0!3_2!5 -68.99956683030386 y_0!4_2!5 -1.8519374619367852 y_0!5_2!5 + lambda_1!1 - mu_1 = 0
 epc_1!2: -39.77413674375483 y_0!1_2!1 -32.977569751734364 y_0!2_2!1 +29.66806691909929 y_0!3_2!1 -96.18932675538416 y_0!4_2!1 -23.59989859619614 y_0!5_2!1 -43.70234948151415 y_0!1_2!2 -95.0896993661422 y_0!2_2!2 -52.83575685623294 y_0!3_2!2 +58.283217384563386 y_0!4_2!2 +31.78414490444598 y_0!5_2!2 +31.858950370898867 y_0!1_2!3 -88.2053811988456 y_0!2_2!3 -83.03183578595137 y_0!3_2!3 +41.38249032300698 y_0!4_2!3 -10.322969519255153 y_0!5_2!3 -95.69305182876332 y_0!1_2!4 -29.62538920047264 y_0!2_2!4 +70.34945474979139 y_0!3_2!4 -47.101383369348596 y_0!4_2!4 -71.26166790160684 y_0!5_2!4 -59.393190183059616 y_0!1_2!5 +36.30716238866515 y_0!2_2!5 +66.40554666011096 y_0!3_2!5 +87.88722899058101 y_0!4_2!5 -31.868814255400224 y_0!5_2!5 + lambda_1!2 - mu_1 = 0
 epc_1!3: -47.39478760805611 y_0!1_2!1 +16.74129035590346 y_0!2_2!1 +82.53372564898277 y_0!3_2!1 +18.70400703276964 y_0!4_2!1 +74.79380049148759 y_0!5_2!1 -11.604836619886498 y_0!1_2!2 -37.935960261812966 y_0!2_2!2 +90.76599945430164 y_0!3_2!2 +57.41727907273244 y_0!4_2!2 -68.94761690472191 y_0!5_2!2 -89.0265891486496 y_0!1_2!3 +72.94329823851959 y_0!2_2!3 -27.255053666321743 y_0!3_2!3 -39.676914964945475 y_0!4_2!3 -13.840131323139076 y_0!5_2!3 +16.82989633075931 y_0!1_2!4 +31.339128116704927 y_0!2_2!4 -51.47435545319805 y_0!3_2!4 +23.806017584835118 y_0!4_2!4 -76.38920699273375 y_0!5_2!4 +9.158304982569604 y_0!1_2!5 +4.591044543028772 y_0!2_2!5 +73.26913343449067 y_0!3_2!5 +13.110245174167261 y_0!4_2!5 -58.63018661239421 y_0!5_2!5 + lambda_1!3 - mu_1 = 0
 epc_1!4: +87.27727382625167 y_0!1_2!1 -70.92808666064698 y_0!2_2!1 +63.63578116490706 y_0!3_2!1 +84.30642575949224 y_0!4_2!1 -96.31689819086415 y_0!5_2!1 -9.271496154247131 y_0!1_2!2 +87.11969893077034 y_0!2_2!2 -38.70181325694064 y_0!3_2!2 -53.23712349366987 y_0!4_2!2 +89.18849317369947 y_0!5_2!2 -27.80600046455082 y_0!1_2!3 +61.261594867071324 y_0!2_2!3 -74.84474501803702 y_0!3_2!3 -47.68517203332927 y_0!4_2!3 +13.421795313760327 y_0!5_2!3 +55.083120714565126 y_0!1_2!4 +56.76028151544398 y_0!2_2!4 -48.39254921483849 y_0!3_2!4 +66.49599080019883 y_0!4_2!4 +73.42682893034939 y_0!5_2!4 +51.47517159487606 y_0!1_2!5 -22.888609297101723 y_0!2_2!5 +32.68029521528217 y_0!3_2!5 -1.07009798020556 y_0!4_2!5 -54.17557549151346 y_0!5_2!5 + lambda_1!4 - mu_1 = 0
 epc_1!5: -11.585532471317734 y_0!1_2!1 -53.77321337340304 y_0!2_2!1 +76.4416191989155 y_0!3_2!1 -66.22756738712074 y_0!4_2!1 -38.16981981040981 y_0!5_2!1 +41.51238046593306 y_0!1_2!2 +18.209590904701287 y_0!2_2!2 +53.80140478120137 y_0!3_2!2 +30.969593961483696 y_0!4_2!2 -76.9568645791527 y_0!5_2!2 +79.11524382521179 y_0!1_2!3 +77.6446336340168 y_0!2_2!3 +31.048632826014597 y_0!3_2!3 -6.143540216108207 y_0!4_2!3 +97.17332775708377 y_0!5_2!3 +19.95386561603452 y_0!1_2!4 -0.599987790602114 y_0!2_2!4 +14.462783216122887 y_0!3_2!4 +34.50565084518598 y_0!4_2!4 -91.67737555098698 y_0!5_2!4 -62.70141667425444 y_0!1_2!5 -51.36737608128526 y_0!2_2!5 -91.7176333339392 y_0!3_2!5 -15.411303240856753 y_0!4_2!5 -93.76946904046679 y_0!5_2!5 + lambda_1!5 - mu_1 = 0
 dc_1: x_1!1 + x_1!2 + x_1!3 + x_1!4 + x_1!5 = 1
 bc_1!1: lambda_1!1 +297.17658804382495 x_1!1 <= 297.17658804382495
 bc_1!2: lambda_1!2 +297.17658804382495 x_1!2 <= 297.17658804382495
 bc_1!3: lambda_1!3 +297.17658804382495 x_1!3 <= 297.17658804382495
 bc_1!4: lambda_1!4 +297.17658804382495 x_1!4 <= 297.17658804382495
 bc_1!5: lambda_1!5 +297.17658804382495 x_1!5 <= 297.17658804382495
 sum_1!1: y_0!1_2!1 - x_0!1 - x_2!1 >= -1
 idk_1!1!0: y_0!1_2!1 - x_0!1 <= 0
 idk_1!1!2: y_0!1_2!1 - x_2!1 <= 0
 sum_1!2: y_0!2_2!1 - x_0!2 - x_2!1 >= -1
 idk_1!2!0: y_0!2_2!1 - x_0!2 <= 0
 idk_1!2!2: y_0!2_2!1 - x_2!1 <= 0
 sum_1!3: y_0!3_2!1 - x_0!3 - x_2!1 >= -1
 idk_1!3!0: y_0!3_2!1 - x_0!3 <= 0
 idk_1!3!2: y_0!3_2!1 - x_2!1 <= 0
 sum_1!4: y_0!4_2!1 - x_0!4 - x_2!1 >= -1
 idk_1!4!0: y_0!4_2!1 - x_0!4 <= 0
 idk_1!4!2: y_0!4_2!1 - x_2!1 <= 0
 sum_1!5: y_0!5_2!1 - x_0!5 - x_2!1 >= -1
 idk_1!5!0: y_0!5_2!1 - x_0!5 <= 0
 idk_1!5!2: y_0!5_2!1 - x_2!1 <= 0
 sum_1!6: y_0!1_2!2 - x_0!1 - x_2!2 >= -1
 idk_1!6!0: y_0!1_2!2 - x_0!1 <= 0
 idk_1!6!2: y_0!1_2!2 - x_2!2 <= 0
 sum_1!7: y_0!2_2!2 - x_0!2 - x_2!2 >= -1
 idk_1!7!0: y_0!2_2!2 - x_0!2 <= 0
 idk_1!7!2: y_0!2_2!2 - x_2!2 <= 0
 sum_1!8: y_0!3_2!2 - x_0!3 - x_2!2 >= -1
 idk_1!8!0: y_0!3_2!2 - x_0!3 <= 0
 idk_1!8!2: y_0!3_2!2 - x_2!2 <= 0
 sum_1!9: y_0!4_2!2 - x_0!4 - x_2!2 >= -1
 idk_1!9!0: y_0!4_2!2 - x_0!4 <= 0
 idk_1!9!2: y_0!4_2!2 - x_2!2 <= 0
 sum_1!10: y_0!5_2!2 - x_0!5 - x_2!2 >= -1
 idk_1!10!0: y_0!5_2!2 - x_0!5 <= 0
 idk_1!10!2: y_0!5_2!2 - x_2!2 <= 0
 sum_1!11: y_0!1_2!3 - x_0!1 - x_2!3 >= -1
 idk_1!11!0: y_0!1_2!3 - x_0!1 <= 0
 idk_1!11!2: y_0!1_2!3 - x_2!3 <= 0
 sum_1!12: y_0!2_2!3 - x_0!2 - x_2!3 >= -1
 idk_1!12!0: y_0!2_2!3 - x_0!2 <= 0
 idk_1!12!2: y_0!2_2!3 - x_2!3 <= 0
 sum_1!13: y_0!3_2!3 - x_0!3 - x_2!3 >= -1
 idk_1!13!0: y_0!3_2!3 - x_0!3 <= 0
 idk_1!13!2: y_0!3_2!3 - x_2!3 <= 0
 sum_1!14: y_0!4_2!3 - x_0!4 - x_2!3 >= -1
 idk_1!14!0: y_0!4_2!3 - x_0!4 <= 0
 idk_1!14!2: y_0!4_2!3 - x_2!3 <= 0
 sum_1!15: y_0!5_2!3 - x_0!5 - x_2!3 >= -1
 idk_1!15!0: y_0!5_2!3 - x_0!5 <= 0
 idk_1!15!2: y_0!5_2!3 - x_2!3 <= 0
 sum_1!16: y_0!1_2!4 - x_0!1 - x_2!4 >= -1
 idk_1!16!0: y_0!1_2!4 - x_0!1 <= 0
 idk_1!16!2: y_0!1_2!4 - x_2!4 <= 0
 sum_1!17: y_0!2_2!4 - x_0!2 - x_2!4 >= -1
 idk_1!17!0: y_0!2_2!4 - x_0!2 <= 0
 idk_1!17!2: y_0!2_2!4 - x_2!4 <= 0
 sum_1!18: y_0!3_2!4 - x_0!3 - x_2!4 >= -1
 idk_1!18!0: y_0!3_2!4 - x_0!3 <= 0
 idk_1!18!2: y_0!3_2!4 - x_2!4 <= 0
 sum_1!19: y_0!4_2!4 - x_0!4 - x_2!4 >= -1
 idk_1!19!0: y_0!4_2!4 - x_0!4 <= 0
 idk_1!19!2: y_0!4_2!4 - x_2!4 <= 0
 sum_1!20: y_0!5_2!4 - x_0!5 - x_2!4 >= -1
 idk_1!20!0: y_0!5_2!4 - x_0!5 <= 0
 idk_1!20!2: y_0!5_2!4 - x_2!4 <= 0
 sum_1!21: y_0!1_2!5 - x_0!1 - x_2!5 >= -1
 idk_1!21!0: y_0!1_2!5 - x_0!1 <= 0
 idk_1!21!2: y_0!1_2!5 - x_2!5 <= 0
 sum_1!22: y_0!2_2!5 - x_0!2 - x_2!5 >= -1
 idk_1!22!0: y_0!2_2!5 - x_0!2 <= 0
 idk_1!22!2: y_0!2_2!5 - x_2!5 <= 0
 sum_1!23: y_0!3_2!5 - x_0!3 - x_2!5 >= -1
 idk_1!23!0: y_0!3_2!5 - x_0!3 <= 0
 idk_1!23!2: y_0!3_2!5 - x_2!5 <= 0
 sum_1!24: y_0!4_2!5 - x_0!4 - x_2!5 >= -1
 idk_1!24!0: y_0!4_2!5 - x_0!4 <= 0
 idk_1!24!2: y_0!4_2!5 - x_2!5 <= 0
 sum_1!25: y_0!5_2!5 - x_0!5 - x_2!5 >= -1
 idk_1!25!0: y_0!5_2!5 - x_0!5 <= 0
 idk_1!25!2: y_0!5_2!5 - x_2!5 <= 0
 epc_2!1: +6.083675695359304 y_0!1_1!1 -56.06873587245427 y_0!2_1!1 -68.25496877840172 y_0!3_1!1 +65.0394576592621 y_0!4_1!1 +77.84162375219503 y_0!5_1!1 -46.72680702949923 y_0!1_1!2 -68.45132047061959 y_0!2_1!2 +33.46084060925699 y_0!3_1!2 +11.814678392048975 y_0!4_1!2 +25.561657536713554 y_0!5_1!2 +16.688773679594007 y_0!1_1!3 -94.04394221698011 y_0!2_1!3 +1.6813708070026792 y_0!3_1!3 -81.10705818935473 y_0!4_1!3 -2.1970042845730973 y_0!5_1!3 -62.7544007341917 y_0!1_1!4 +57.54480131160395 y_0!2_1!4 +78.46378684441558 y_0!3_1!4 +21.474462100492843 y_0!4_1!4 +89.7981441858073 y_0!5_1!4 +67.36344356146614 y_0!1_1!5 +46.24096260311339 y_0!2_1!5 -0.2507697977634109 y_0!3_1!5 -78.2240828177545 y_0!4_1!5 +94.35851326408641 y_0!5_1!5 + lambda_2!1 - mu_2 = 0
 epc_2!2: -37.06472339508717 y_0!1_1!1 -15.461529132132725 y_0!2_1!1 -76.32209924182047 y_0!3_1!1 +93.30201561583527 y_0!4_1!1 +19.451624843650436 y_0!5_1!1 -75.79607604830005 y_0!1_1!2 -19.909182222359135 y_0!2_1!2 -51.683959831439076 y_0!3_1!2 +76.9008058602692 y_0!4_1!2 -93.77323213338096 y_0!5_1!2 -33.25316471833966 y_0!1_1!3 -1.7094938628671201 y_0!2_1!3 +29.92280484757876 y_0!3_1!3 -99.78842221712479 y_0!4_1!3 -79.3739087592688 y_0!5_1!3 +23.253127946244348 y_0!1_1!4 +37.48542723473753 y_0!2_1!4 -30.42126974682526 y_0!3_1!4 -57.86897759765366 y_0!4_1!4 +16.001810476253908 y_0!5_1!4 +88.48610903167955 y_0!1_1!5 -81.85002415173818 y_0!2_1!5 +3.398816109179066 y_0!3_1!5 -41.96355100091911 y_0!4_1!5 -93.6011165271661 y_0!5_1!5 + lambda_2!2 - mu_2 = 0
 epc_2!3: -20.566309100019268 y_0!1_1!1 -54.392948047105264 y_0!2_1!1 +57.30348494042994 y_0!3_1!1 -72.12750552302789 y_0!4_1!1 +41.76766146109614 y_0!5_1!1 -49.333055595692166 y_0!1_1!2 +87.49324379756399 y_0!2_1!2 +14.599725752131064 y_0!3_1!2 +31.579008390060494 y_0!4_1!2 +68.98746329833244 y_0!5_1!2 -5.393397212836405 y_0!1_1!3 +75.9420765747889 y_0!2_1!3 +49.872278055691766 y_0!3_1!3 -24.967241808633077 y_0!4_1!3 +6.234090850141854 y_0!5_1!3 +91.70797626198276 y_0!1_1!4 +73.65838265688132 y_0!2_1!4 +6.184393482001639 y_0!3_1!4 +92.46709461822854 y_0!4_1!4 -69.8531900045252 y_0!5_1!4 +94.38855735324466 y_0!1_1!5 -82.04110110791866 y_0!2_1!5 -15.412539346977567 y_0!3_1!5 +55.635039541429535 y_0!4_1!5 +69.55917189239088 y_0!5_1!5 + lambda_2!3 - mu_2 = 0
 epc_2!4: +59.920215376730255 y_0!1_1!1 +58.65821424391828 y_0!2_1!1 -86.30514784638179 y_0!3_1!1 +11.50466006454485 y_0!4_1!1 +41.66577274919331 y_0!5_1!1 +35.86484407470155 y_0!1_1!2 +67.89970192504552 y_0!2_1!2 -71.00250906700069 y_0!3_1!2 +17.05385636464007 y_0!4_1!2 +39.933010251364266 y_0!5_1!2 +43.885347563207176 y_0!1_1!3 -27.3743294264748 y_0!2_1!3 +67.37904718079542 y_0!3_1!3 +84.17520465134606 y_0!4_1!3 -89.90112856408709 y_0!5_1!3 +14.019749888819533 y_0!1_1!4 +10.491652726835255 y_0!2_1!4 -63.30456310347385 y_0!3_1!4 +93.08234539906994 y_0!4_1!4 +11.852949442971948 y_0!5_1!4 -97.10403457175897 y_0!1_1!5 -67.99251882763768 y_0!2_1!5 -12.998133817955178 y_0!3_1!5 +84.13952498465014 y_0!4_1!5 -64.34863082837745 y_0!5_1!5 + lambda_2!4 - mu_2 = 0
 epc_2!5: +60.7989592217005 y_0!1_1!1 -27.203356207710456 y_0!2_1!1 +16.70813177528288 y_0!3_1!1 -47.560696986092225 y_0!4_1!1 -23.200078675279627 y_0!5_1!1 -88.26298166561541 y_0!1_1!2 -8.171625815585926 y_0!2_1!2 +39.448219310997274 y_0!3_1!2 +10.691293468731857 y_0!4_1!2 +21.34428360676523 y_0!5_1!2 +18.820491660875234 y_0!1_1!3 -48.23235874146401 y_0!2_1!3 +75.71498022594511 y_0!3_1!3 +78.53923932004508 y_0!4_1!3 +90.07944039370582 y_0!5_1!3 -50.2283955691033 y_0!1_1!4 +88.124130239191 y_0!2_1!4 -74.4495281864356 y_0!3_1!4 +71.29645627678082 y_0!4_1!4 -78.48925587848524 y_0!5_1!4 +7.838515440512239 y_0!1_1!5 +78.5274667908765 y_0!2_1!5 -36.23746621168604 y_0!3_1!5 +63.42133632949748 y_0!4_1!5 +30.646539586233956 y_0!5_1!5 + lambda_2!5 - mu_2 = 0
 dc_2: x_2!1 + x_2!2 + x_2!3 + x_2!4 + x_2!5 = 1
 bc_2!1: lambda_2!1 +297.17658804382495 x_2!1 <= 297.17658804382495
 bc_2!2: lambda_2!2 +297.17658804382495 x_2!2 <= 297.17658804382495
 bc_2!3: lambda_2!3 +297.17658804382495 x_2!3 <= 297.17658804382495
 bc_2!4: lambda_2!4 +297.17658804382495 x_2!4 <= 297.17658804382495
 bc_2!5: lambda_2!5 +297.17658804382495 x_2!5 <= 297.17658804382495
 sum_2!1: y_0!1_1!1 - x_0!1 - x_1!1 >= -1
 idk_2!1!0: y_0!1_1!1 - x_0!1 <= 0
 idk_2!1!1: y_0!1_1!1 - x_1!1 <= 0
 sum_2!2: y_0!2_1!1 - x_0!2 - x_1!1 >= -1
 idk_2!2!0: y_0!2_1!1 - x_0!2 <= 0
 idk_2!2!1: y_0!2_1!1 - x_1!1 <= 0
 sum_2!3: y_0!3_1!1 - x_0!3 - x_1!1 >= -1
 idk_2!3!0: y_0!3_1!1 - x_0!3 <= 0
 idk_2!3!1: y_0!3_1!1 - x_1!1 <= 0
 sum_2!4: y_0!4_1!1 - x_0!4 - x_1!1 >= -1
 idk_2!4!0: y_0!4_1!1 - x_0!4 <= 0
 idk_2!4!1: y_0!4_1!1 - x_1!1 <= 0
 sum_2!5: y_0!5_1!1 - x_0!5 - x_1!1 >= -1
 idk_2!5!0: y_0!5_1!1 - x_0!5 <= 0
 idk_2!5!1: y_0!5_1!1 - x_1!1 <= 0
 sum_2!6: y_0!1_1!2 - x_0!1 - x_1!2 >= -1
 idk_2!6!0: y_0!1_1!2 - x_0!1 <= 0
 idk_2!6!1: y_0!1_1!2 - x_1!2 <= 0
 sum_2!7: y_0!2_1!2 - x_0!2 - x_1!2 >= -1
 idk_2!7!0: y_0!2_1!2 - x_0!2 <= 0
 idk_2!7!1: y_0!2_1!2 - x_1!2 <= 0
 sum_2!8: y_0!3_1!2 - x_0!3 - x_1!2 >= -1
 idk_2!8!0: y_0!3_1!2 - x_0!3 <= 0
 idk_2!8!1: y_0!3_1!2 - x_1!2 <= 0
 sum_2!9: y_0!4_1!2 - x_0!4 - x_1!2 >= -1
 idk_2!9!0: y_0!4_1!2 - x_0!4 <= 0
 idk_2!9!1: y_0!4_1!2 - x_1!2 <= 0
 sum_2!10: y_0!5_1!2 - x_0!5 - x_1!2 >= -1
 idk_2!10!0: y_0!5_1!2 - x_0!5 <= 0
 idk_2!10!1: y_0!5_1!2 - x_1!2 <= 0
 sum_2!11: y_0!1_1!3 - x_0!1 - x_1!3 >= -1
 idk_2!11!0: y_0!1_1!3 - x_0!1 <= 0
 idk_2!11!1: y_0!1_1!3 - x_1!3 <= 0
 sum_2!12: y_0!2_1!3 - x_0!2 - x_1!3 >= -1
 idk_2!12!0: y_0!2_1!3 - x_0!2 <= 0
 idk_2!12!1: y_0!2_1!3 - x_1!3 <= 0
 sum_2!13: y_0!3_1!3 - x_0!3 - x_1!3 >= -1
 idk_2!13!0: y_0!3_1!3 - x_0!3 <= 0
 idk_2!13!1: y_0!3_1!3 - x_1!3 <= 0
 sum_2!14: y_0!4_1!3 - x_0!4 - x_1!3 >= -1
 idk_2!14!0: y_0!4_1!3 - x_0!4 <= 0
 idk_2!14!1: y_0!4_1!3 - x_1!3 <= 0
 sum_2!15: y_0!5_1!3 - x_0!5 - x_1!3 >= -1
 idk_2!15!0: y_0!5_1!3 - x_0!5 <= 0
 idk_2!15!1: y_0!5_1!3 - x_1!3 <= 0
 sum_2!16: y_0!1_1!4 - x_0!1 - x_1!4 >= -1
 idk_2!16!0: y_0!1_1!4 - x_0!1 <= 0
 idk_2!16!1: y_0!1_1!4 - x_1!4 <= 0
 sum_2!17: y_0!2_1!4 - x_0!2 - x_1!4 >= -1
 idk_2!17!0: y_0!2_1!4 - x_0!2 <= 0
 idk_2!17!1: y_0!2_1!4 - x_1!4 <= 0
 sum_2!18: y_0!3_1!4 - x_0!3 - x_1!4 >= -1
 idk_2!18!0: y_0!3_1!4 - x_0!3 <= 0
 idk_2!18!1: y_0!3_1!4 - x_1!4 <= 0
 sum_2!19: y_0!4_1!4 - x_0!4 - x_1!4 >= -1
 idk_2!19!0: y_0!4_1!4 - x_0!4 <= 0
 idk_2!19!1: y_0!4_1!4 - x_1!4 <= 0
 sum_2!20: y_0!5_1!4 - x_0!5 - x_1!4 >= -1
 idk_2!20!0: y_0!5_1!4 - x_0!5 <= 0
 idk_2!20!1: y_0!5_1!4 - x_1!4 <= 0
 sum_2!21: y_0!1_1!5 - x_0!1 - x_1!5 >= -1
 idk_2!21!0: y_0!1_1!5 - x_0!1 <= 0
 idk_2!21!1: y_0!1_1!5 - x_1!5 <= 0
 sum_2!22: y_0!2_1!5 - x_0!2 - x_1!5 >= -1
 idk_2!22!0: y_0!2_1!5 - x_0!2 <= 0
 idk_2!22!1: y_0!2_1!5 - x_1!5 <= 0
 sum_2!23: y_0!3_1!5 - x_0!3 - x_1!5 >= -1
 idk_2!23!0: y_0!3_1!5 - x_0!3 <= 0
 idk_2!23!1: y_0!3_1!5 - x_1!5 <= 0
 sum_2!24: y_0!4_1!5 - x_0!4 - x_1!5 >= -1
 idk_2!24!0: y_0!4_1!5 - x_0!4 <= 0
 idk_2!24!1: y_0!4_1!5 - x_1!5 <= 0
 sum_2!25: y_0!5_1!5 - x_0!5 - x_1!5 >= -1
 idk_2!25!0: y_0!5_1!5 - x_0!5 <= 0
 idk_2!25!1: y_0!5_1!5 - x_1!5 <= 0
Bounds
 mu_0 free
 mu_1 free
 mu_2 free
Binary
 x_0!1 x_0!2 x_0!3 x_0!4 x_0!5 x_1!1 x_1!2 x_1!3 x_1!4 x_1!5 x_2!1 x_2!2 x_2!3 x_2!4 x_2!5
End
